0 2
0 3
0 6
0 9
0 11
0 13
0 14
0 16
0 17
0 21
0 22
0 23
0 25
0 28
0 30
0 32
0 35
0 37
0 39
0 42
0 45
0 48
0 51
0 52
0 53
0 61
0 62
0 64
0 65
0 67
0 68
0 70
0 71
0 72
0 74
0 75
0 76
0 78
0 79
0 80
0 81
0 82
0 83
0 84
0 85
0 86
0 87
0 88
0 89
0 90
0 91
0 92
0 93
0 94
0 95
0 97
0 98
0 99
0 100
0 104
0 105
0 106
0 107
0 108
0 109
0 112
0 113
0 114
0 116
0 117
0 118
0 121
0 122
0 124
0 126
0 127
0 128
0 129
0 130
0 131
0 132
0 133
0 136
0 137
0 140
0 141
0 147
0 150
0 154
0 155
0 156
0 157
0 160
0 161
0 164
0 165
0 166
0 172
0 179
0 183
0 184
0 207
0 209
0 222
0 223
0 225
0 226
0 228
0 229
0 231
0 233
0 234
0 235
0 236
0 240
0 241
0 243
0 253
0 254
0 261
0 274
0 275
0 289
0 290
0 291
0 293
0 294
0 319
0 320
0 321
0 322
0 323
0 324
0 325
0 326
0 334
0 342
0 343
0 345
0 360
0 436
0 442
0 446
0 447
0 448
0 891
0 892
0 893
0 894
0 895
0 896
0 897
0 898
0 899
1 6
1 58
1 159
1 187
1 188
1 262
1 346
1 926
2 3
2 5
2 6
2 9
2 19
2 20
2 21
2 23
2 29
2 30
2 32
2 33
2 37
2 39
2 42
2 46
2 66
2 67
2 71
2 74
2 75
2 78
2 80
2 81
2 82
2 83
2 85
2 86
2 87
2 91
2 94
2 97
2 99
2 100
2 103
2 105
2 108
2 109
2 111
2 112
2 121
2 122
2 123
2 125
2 126
2 132
2 148
2 150
2 161
2 162
2 166
2 173
2 177
2 179
2 181
2 183
2 199
2 203
2 210
2 216
2 252
2 253
2 282
2 359
2 360
2 425
2 430
2 935
2 936
2 937
2 938
2 939
2 940
2 941
2 942
3 13
3 17
3 32
3 52
3 60
3 61
3 62
3 63
3 74
3 77
3 88
3 95
3 102
3 103
3 112
3 113
3 114
3 115
3 116
3 117
3 118
3 127
3 129
3 130
3 131
3 136
3 137
3 153
3 155
3 220
3 221
3 222
3 223
3 224
3 225
3 228
3 229
3 288
3 289
3 290
3 291
3 295
3 296
3 437
3 438
3 439
3 440
3 441
3 442
3 443
3 444
3 445
3 446
3 447
3 976
3 977
4 9
4 47
4 52
4 60
4 63
4 67
4 77
4 82
4 85
4 90
4 97
4 98
4 102
4 103
4 104
4 112
4 115
4 116
4 117
4 120
4 131
4 145
4 153
4 154
4 155
4 158
4 163
4 167
4 168
4 174
4 192
4 193
4 197
4 200
4 202
4 220
4 221
4 224
4 228
4 229
4 245
4 246
4 257
4 260
4 288
4 295
4 296
4 343
4 344
4 345
4 362
4 437
4 438
4 439
4 440
4 441
4 443
4 444
4 445
4 930
5 37
5 42
5 74
5 79
5 80
5 86
5 88
5 89
5 94
5 107
5 110
5 122
5 127
5 132
5 148
5 149
5 157
5 166
5 196
5 199
5 217
5 219
5 226
5 232
5 247
5 249
5 250
5 263
5 264
5 280
5 313
5 314
5 315
5 316
5 337
5 339
5 352
5 882
5 883
5 884
5 885
5 886
5 887
5 888
5 889
6 13
6 18
6 21
6 28
6 33
6 36
6 42
6 47
6 48
6 50
6 52
6 59
6 61
6 62
6 65
6 68
6 71
6 72
6 74
6 75
6 77
6 78
6 92
6 96
6 98
6 104
6 106
6 114
6 119
6 121
6 127
6 135
6 136
6 137
6 143
6 146
6 147
6 151
6 159
6 160
6 164
6 171
6 172
6 175
6 181
6 187
6 188
6 195
6 198
6 201
6 206
6 213
6 262
6 266
6 346
6 347
6 348
6 349
6 931
6 932
7 15
7 16
7 19
7 22
7 23
7 35
7 76
7 123
7 124
7 148
7 189
7 204
7 910
7 911
7 912
8 12
8 24
8 27
8 28
8 39
8 41
8 64
8 65
8 74
8 95
8 96
8 98
8 106
8 114
8 121
8 125
8 129
8 134
8 138
8 152
8 169
8 190
8 191
8 194
8 205
8 207
8 208
8 254
8 255
8 256
8 298
8 361
8 943
9 10
9 23
9 32
9 42
9 70
9 71
9 75
9 78
9 79
9 82
9 90
9 92
9 103
9 105
9 107
9 110
9 157
9 158
9 216
9 236
9 246
9 258
9 303
9 304
9 305
9 355
9 366
9 455
9 456
9 457
9 458
10 14
10 16
10 22
10 23
10 35
10 37
10 40
10 42
10 46
10 70
10 76
10 84
10 89
10 91
10 92
10 101
10 109
10 111
10 112
10 120
10 122
10 125
10 167
10 168
10 173
10 176
10 177
10 180
10 203
10 204
10 213
10 214
10 219
10 268
10 269
10 270
10 278
10 279
10 369
10 370
10 379
10 955
10 956
10 957
10 958
10 959
11 47
11 63
11 67
11 72
11 76
11 77
11 78
11 81
11 84
11 96
11 97
11 99
11 100
11 101
11 102
11 109
11 111
11 112
11 114
11 115
11 119
11 120
11 121
11 124
11 131
11 141
11 142
11 144
11 145
11 146
11 153
11 154
11 157
11 158
11 160
11 162
11 163
11 170
11 171
11 182
11 185
11 190
11 192
11 193
11 194
11 196
11 208
11 210
11 211
11 217
11 220
11 224
11 230
11 233
11 234
11 235
11 236
11 237
11 239
11 244
11 245
11 248
11 251
11 256
11 259
11 263
11 265
11 266
11 267
11 270
11 271
11 272
11 273
11 275
11 277
11 281
11 283
11 287
11 297
11 301
11 302
11 303
11 304
11 305
11 306
11 307
11 308
11 310
11 311
11 313
11 314
11 315
11 316
11 317
11 318
11 321
11 327
11 329
11 330
11 331
11 332
11 336
11 340
11 341
11 344
11 348
11 349
11 351
11 356
11 357
11 358
11 361
11 364
11 365
11 369
11 371
11 372
11 373
11 374
11 375
11 376
11 380
11 381
11 382
11 383
11 384
11 385
11 386
11 387
11 388
11 389
11 390
11 391
11 392
11 393
11 394
11 395
11 396
11 397
11 398
11 399
11 400
11 401
11 402
11 403
11 404
11 405
11 406
11 407
11 408
11 409
11 410
11 411
11 412
11 413
11 414
11 415
11 416
11 417
11 418
11 419
11 420
11 421
11 422
11 423
11 428
11 429
11 431
11 461
11 462
11 463
11 464
11 465
11 466
11 467
11 468
11 469
11 470
11 471
11 472
11 473
11 474
11 475
11 476
11 477
11 478
11 479
11 480
11 481
11 482
11 483
11 484
11 485
11 486
11 487
11 488
11 489
11 490
11 491
11 492
11 493
11 494
11 495
11 496
11 497
11 498
11 499
11 500
11 501
11 502
11 503
11 504
11 505
11 506
11 507
11 508
11 509
11 510
11 511
11 512
11 513
11 514
11 515
11 516
11 517
11 518
11 519
11 520
11 521
11 522
11 523
11 524
11 525
11 526
11 527
11 528
11 529
11 530
11 531
11 532
11 533
11 534
11 535
11 536
11 537
11 538
11 539
11 540
11 541
11 542
11 543
11 544
11 545
11 546
11 547
11 548
11 549
11 550
11 551
11 552
11 553
11 554
11 555
11 556
11 557
11 558
11 559
11 560
11 561
11 562
11 563
11 564
11 565
11 566
11 567
11 568
11 569
11 570
11 571
11 572
11 573
11 574
11 575
11 576
11 577
11 578
11 579
11 580
11 581
11 582
11 583
11 584
11 585
11 586
11 587
11 588
11 589
11 590
11 591
11 592
11 593
11 594
11 595
11 596
11 597
11 598
11 599
11 600
11 601
11 602
11 603
11 604
11 605
11 606
11 607
11 608
11 609
11 610
11 611
11 612
11 613
11 614
11 615
11 616
11 617
11 618
11 619
11 620
11 621
11 622
11 623
11 624
11 625
11 626
11 627
11 628
11 629
11 630
11 631
11 632
11 633
11 634
11 635
11 636
11 637
11 638
11 639
11 640
11 641
11 642
11 643
11 644
11 645
11 646
11 647
11 648
11 649
11 650
11 651
11 652
11 653
11 654
11 655
11 656
11 657
11 658
11 659
11 660
11 661
11 662
11 663
11 664
11 665
11 666
11 667
11 668
11 669
11 670
11 671
11 672
11 673
11 674
11 675
11 676
11 677
11 678
11 679
11 680
11 681
11 682
11 683
11 684
11 685
11 686
11 687
11 688
11 689
11 690
11 691
11 692
11 693
11 694
11 695
11 696
11 697
11 698
11 699
11 700
11 701
11 702
11 703
11 704
11 705
11 706
11 707
11 708
11 709
11 710
11 711
11 712
11 713
11 714
11 715
11 716
11 717
11 718
11 719
11 720
11 721
11 722
11 723
11 724
11 725
11 726
11 727
11 728
11 729
11 730
11 731
11 732
11 733
11 734
11 735
11 736
11 737
11 738
11 739
11 740
11 741
11 742
11 743
11 744
11 745
11 746
11 747
11 748
11 749
11 750
11 751
11 752
11 753
11 754
11 755
11 756
11 757
11 758
11 759
11 760
11 761
11 762
11 763
11 764
11 765
11 766
11 767
11 768
11 769
11 770
11 771
11 772
11 773
11 774
11 775
11 776
11 777
11 778
11 779
11 780
11 781
11 782
11 783
11 784
11 785
11 786
11 787
11 788
11 789
11 790
11 791
11 792
11 793
11 794
11 795
11 796
11 797
11 798
11 799
11 800
11 801
11 802
11 803
11 804
11 805
11 806
11 807
11 808
11 809
11 810
11 811
11 812
11 813
11 814
11 815
11 816
11 817
11 818
11 819
11 820
11 821
11 822
11 823
11 824
11 825
11 826
11 827
11 828
11 829
11 830
11 831
11 832
11 833
11 834
11 835
11 836
11 837
11 838
11 839
11 840
11 841
11 842
11 843
11 844
11 845
11 846
11 847
11 848
11 849
11 850
11 851
11 852
11 853
11 854
11 855
11 856
11 857
11 858
11 859
11 860
11 861
11 862
11 863
11 864
11 865
11 866
12 13
12 24
12 27
12 38
12 41
12 64
12 96
12 98
12 106
12 134
12 152
12 169
12 191
12 205
12 207
12 208
12 210
12 238
12 244
12 254
12 255
12 256
12 299
12 309
13 17
13 21
13 23
13 30
13 33
13 45
13 48
13 52
13 61
13 87
13 88
13 94
13 104
13 117
13 129
13 130
13 139
13 140
13 156
13 183
13 184
13 226
13 293
13 294
13 448
14 28
14 33
14 50
14 52
14 62
14 64
14 65
14 68
14 71
14 72
14 74
14 77
14 80
14 90
14 95
14 97
14 98
14 100
14 102
14 103
14 104
14 106
14 119
14 122
14 128
14 129
14 134
14 135
14 136
14 139
14 146
14 147
14 156
14 169
14 170
14 171
14 172
14 173
14 174
14 206
14 212
14 218
14 271
14 272
14 273
14 297
14 371
14 372
14 373
14 374
14 375
14 376
14 377
14 963
14 964
14 965
15 19
15 22
15 29
15 34
15 39
15 66
15 70
15 71
15 81
15 84
15 85
15 90
15 92
15 93
15 101
15 108
15 111
15 122
15 123
15 124
15 149
15 177
15 189
15 215
15 219
15 247
15 248
15 249
15 250
15 285
15 286
15 351
15 352
15 359
15 432
15 433
15 434
15 435
15 933
16 35
16 75
16 78
16 79
16 83
16 91
16 99
16 100
16 103
16 123
16 125
16 148
16 165
16 167
16 173
16 176
16 196
16 199
16 213
16 214
16 263
16 264
16 268
16 270
16 366
16 426
16 952
16 953
17 21
17 26
17 32
17 61
17 72
17 73
17 74
17 84
17 88
17 95
17 113
17 118
17 127
17 129
17 130
17 133
17 137
17 140
17 141
17 153
17 172
17 184
17 222
17 223
17 225
17 231
17 233
17 234
17 235
17 241
17 274
17 291
17 319
17 320
17 322
17 324
17 325
17 326
17 460
18 30
18 38
18 59
18 116
18 128
18 138
18 152
18 182
18 185
18 227
18 292
18 978
18 979
18 980
18 981
18 982
18 983
19 21
19 23
19 40
19 42
19 70
19 71
19 75
19 76
19 79
19 84
19 86
19 87
19 91
19 97
19 99
19 101
19 105
19 108
19 115
19 126
19 158
19 161
19 179
19 180
19 214
19 240
19 247
19 252
19 269
19 335
19 370
19 876
19 877
20 29
20 35
20 39
20 42
20 52
20 76
20 79
20 80
20 83
20 85
20 89
20 103
20 109
20 110
20 112
20 126
20 146
20 149
20 176
20 178
20 181
20 196
20 201
20 203
20 251
20 252
20 277
20 283
20 353
20 354
20 355
20 356
20 357
20 358
20 934
21 23
21 34
21 42
21 61
21 70
21 71
21 74
21 75
21 79
21 83
21 85
21 88
21 90
21 94
21 100
21 105
21 108
21 113
21 115
21 118
21 121
21 123
21 125
21 127
21 136
21 137
21 155
21 166
21 215
21 225
21 243
21 265
21 268
21 289
21 290
21 340
21 354
21 927
22 23
22 34
22 35
22 37
22 75
22 82
22 84
22 86
22 87
22 89
22 91
22 93
22 99
22 100
22 101
22 107
22 115
22 121
22 126
22 148
22 176
22 177
22 178
22 213
22 214
22 215
22 277
22 278
22 279
22 425
22 426
22 427
23 28
23 30
23 37
23 42
23 48
23 61
23 65
23 70
23 71
23 72
23 74
23 75
23 76
23 78
23 79
23 80
23 81
23 82
23 83
23 85
23 86
23 87
23 88
23 89
23 91
23 92
23 93
23 94
23 95
23 97
23 99
23 104
23 105
23 107
23 108
23 109
23 113
23 114
23 116
23 117
23 118
23 126
23 127
23 129
23 130
23 132
23 133
23 135
23 136
23 137
23 139
23 140
23 141
23 144
23 150
23 151
23 162
23 164
23 165
23 175
23 183
23 195
23 211
23 261
23 427
24 27
24 39
24 64
24 65
24 74
24 96
24 98
24 114
24 125
24 134
24 138
24 152
24 169
24 186
24 190
24 191
24 205
24 242
24 248
24 255
25 88
25 118
25 131
25 139
25 154
25 157
25 209
25 253
25 293
25 294
25 308
25 323
25 870
26 32
26 33
26 36
26 52
26 60
26 142
26 156
26 185
26 230
26 231
26 298
26 299
26 989
26 990
26 991
26 992
26 993
26 994
26 995
26 996
26 997
26 998
26 999
27 65
27 74
27 134
27 152
27 169
27 186
27 190
27 194
27 238
27 242
27 309
28 33
28 36
28 41
28 42
28 46
28 47
28 50
28 52
28 53
28 55
28 62
28 65
28 71
28 72
28 76
28 77
28 83
28 90
28 95
28 99
28 100
28 102
28 103
28 133
28 135
28 144
28 145
28 162
28 163
28 164
28 198
28 201
28 220
28 221
28 239
28 243
28 246
28 288
28 329
28 330
28 906
28 907
28 908
29 34
29 35
29 37
29 39
29 46
29 149
29 189
29 204
29 250
29 286
29 337
29 338
29 339
29 353
29 924
29 925
30 42
30 48
30 61
30 65
30 70
30 71
30 72
30 74
30 75
30 76
30 78
30 79
30 80
30 81
30 82
30 83
30 85
30 86
30 87
30 88
30 89
30 91
30 92
30 93
30 94
30 95
30 97
30 99
30 104
30 105
30 107
30 108
30 109
30 113
30 114
30 116
30 117
30 118
30 126
30 127
30 129
30 130
30 132
30 133
30 135
30 136
30 137
30 139
30 140
30 141
30 144
30 150
30 151
30 164
30 165
30 175
30 183
30 184
30 195
30 211
30 261
31 336
31 917
31 918
31 919
31 920
31 921
32 42
32 47
32 60
32 70
32 75
32 76
32 78
32 79
32 80
32 82
32 86
32 87
32 93
32 94
32 97
32 105
32 107
32 144
32 147
32 158
32 161
32 162
32 230
32 231
32 269
32 281
32 341
32 342
32 928
32 929
33 36
33 47
33 50
33 52
33 55
33 62
33 64
33 65
33 68
33 71
33 72
33 77
33 94
33 96
33 106
33 119
33 120
33 128
33 142
33 143
33 146
33 160
33 167
33 172
33 174
33 181
33 182
33 239
33 251
33 332
33 333
33 350
34 35
34 39
34 66
34 70
34 71
34 75
34 76
34 80
34 84
34 89
34 90
34 91
34 92
34 93
34 100
34 101
34 103
34 108
34 109
34 110
34 111
34 115
34 122
34 123
34 124
34 125
34 148
34 178
34 179
34 216
34 217
34 280
34 281
34 282
34 283
34 428
34 429
34 430
35 39
35 42
35 71
35 75
35 76
35 82
35 83
35 84
35 86
35 89
35 90
35 101
35 110
35 115
35 122
35 123
35 124
35 178
35 180
35 203
35 204
35 909
36 38
36 44
36 46
36 54
36 57
36 64
36 81
36 106
36 135
36 160
36 218
36 237
36 245
36 292
36 327
36 328
36 378
36 900
36 901
36 902
36 903
36 904
36 905
37 42
37 70
37 71
37 75
37 76
37 78
37 79
37 80
37 82
37 83
37 85
37 86
37 87
37 89
37 91
37 93
37 99
37 107
37 108
37 109
37 132
37 150
37 161
37 165
37 178
37 179
37 240
37 334
37 335
38 41
38 54
38 57
38 59
38 72
38 74
38 90
38 92
38 113
38 119
38 133
38 134
38 141
38 147
38 207
38 208
38 209
38 210
38 274
38 284
38 378
38 379
38 966
39 70
39 71
39 81
39 84
39 92
39 93
39 101
39 111
39 123
39 124
39 149
39 219
39 285
39 286
39 432
39 433
39 434
39 435
40 47
40 120
40 163
40 168
40 174
40 192
40 193
40 194
40 197
40 200
40 202
40 224
40 257
40 258
40 259
40 260
40 362
40 944
41 62
41 64
41 124
41 134
41 152
41 216
41 244
42 46
42 53
42 71
42 75
42 76
42 78
42 82
42 83
42 84
42 85
42 86
42 87
42 91
42 92
42 93
42 94
42 101
42 110
42 111
42 125
42 126
42 150
42 180
42 181
42 287
42 436
42 975
43 71
43 81
43 142
43 232
43 867
43 868
43 869
44 55
44 57
44 128
44 212
44 218
44 284
44 300
44 301
44 306
44 328
44 377
44 424
44 453
44 454
45 71
45 87
45 102
45 104
45 113
45 130
45 139
45 140
45 156
45 226
45 312
45 878
45 879
45 880
46 47
46 65
46 67
46 68
46 72
46 74
46 75
46 77
46 79
46 80
46 87
46 89
46 94
46 96
46 105
46 115
46 120
46 132
46 142
46 166
46 167
46 168
46 175
46 182
46 197
46 198
46 199
46 200
46 201
46 202
46 215
46 264
46 265
46 266
46 279
46 280
46 954
47 50
47 62
47 68
47 72
47 77
47 97
47 107
47 120
47 143
47 163
47 168
47 174
47 192
47 193
47 197
47 200
47 202
47 257
47 258
47 259
47 260
48 241
48 298
48 922
48 923
49 159
49 187
49 347
49 881
50 52
50 62
50 68
50 71
50 72
50 77
50 96
50 98
50 102
50 111
50 131
50 142
50 143
50 156
50 170
50 186
50 871
50 872
51 52
51 77
51 102
51 103
51 112
51 116
51 117
51 131
51 155
51 159
51 188
51 221
52 62
52 71
52 72
52 74
52 76
52 106
52 117
52 185
52 198
52 206
52 299
52 310
52 311
52 873
52 874
52 875
53 61
53 72
53 77
53 118
53 145
53 237
53 317
53 318
53 333
53 363
53 890
54 55
54 64
54 65
54 88
54 119
54 128
54 138
54 145
54 170
54 209
54 223
54 267
54 276
54 312
54 367
54 368
54 459
55 57
55 64
55 138
55 182
55 212
55 292
56 262
56 273
56 364
56 365
56 945
56 946
56 947
56 948
56 949
56 950
56 951
57 138
57 218
57 284
57 431
57 973
57 974
58 65
58 102
58 144
58 151
58 153
58 363
59 331
60 67
60 154
60 155
60 228
60 229
60 295
60 296
60 449
60 450
60 451
60 452
60 987
60 988
61 74
61 88
61 95
61 118
61 130
61 140
61 141
61 153
61 184
62 65
62 68
62 71
62 72
62 77
62 98
62 102
62 116
62 119
62 143
62 147
62 171
62 195
62 206
62 222
63 78
63 100
63 154
63 217
63 275
63 380
63 381
63 382
63 383
63 384
63 385
63 386
63 387
63 388
63 389
63 390
63 391
63 392
63 393
63 394
63 395
63 396
63 397
63 398
63 399
63 400
63 401
63 402
63 403
63 404
63 405
63 406
63 407
63 408
63 409
63 410
63 411
63 412
63 413
63 414
63 415
63 416
63 417
63 418
63 419
63 420
63 421
63 422
63 423
63 967
63 968
63 969
63 970
63 971
63 972
64 128
64 145
64 170
64 267
64 276
64 367
64 368
65 85
65 90
65 110
65 227
65 282
65 960
65 961
65 962
66 68
66 149
66 189
66 249
66 285
66 338
67 449
67 450
67 451
67 452
68 913
68 914
68 915
68 916
69 110
70 81
70 177
73 142
73 230
73 984
73 985
73 986
